cost: 510.23
Route 1:           0   12   47   18    4   17   37   15   45   44   42   40   19   41   13   25   14    6    0
Route 2:           0   32    1   22    3   36   35   20   28   31    8   26    7   43   24   23   48   27    0
Route 3:           0   46    5   38    9   49   10   33   39   30   34   50   21   29    2   16   11    0
